
  32    4
  10   10   10   10

   0   0   0   0   0   3 2 11 14 
   3   0   1   1   1   1 3 
   6   0   4   4   5   2 22 4 
   6   1   6   4   0   1 5 
   1   0   2   3   2   3 31 10 6 
   4   0   3   2   5   1 7 
   6   4   0   7   5   3 24 13 8 
   9   2   1   0   3   2 16 9 
  10   8   0   6   8   3 19 18 12 
   9   4   0   4   2   3 19 18 12 
   3   0   4   2   4   3 30 17 16 
   4   6   0   6   5   2 30 15 
   4   3   8   2   0   2 19 16 
   5   3   2   0   6   2 30 17 
  10   7   5   4   0   1 17 
   8   0   2   5   2   1 18 
   4   7   5   0   5   1 20 
   5   0   3   5   3   1 20 
   9   0   1   3   4   1 20 
   2   3   9   0   4   1 21 
  10   0   3   4   4   1 23 
   9   4   5   3   0   1 23 
   4   6   0   4   3   1 25 
   8   2   0   5   6   1 25 
   9   0   4   4   2   1 26 
   9   5   7   3   0   2 29 27 
   8   3   3   0   5   1 28 
   8   5   6   8   0   1 32
   6   2   3   5   0   1 32
   4   3   4   5   0   1 32
   7   2   5   1   0   1 32
   0   0   0   0   0   0 
